c ind 10 11 118 120 122 124 126 128 130 132 0
c ind 14 15 18 202 204 206 208 210 212 214 0
c ind 216 218 220 222 224 226 228 230 232 249 0
c ind 251 253 255 257 259 261 263 265 267 269 0
c ind 271 273 275 277 279 35 36 38 40 42 0
c ind 44 46 48 50 52 54 56 58 6 60 0
c ind 62 64 66 7 78 81 84 0
p cnf 279 753
-1 -2 16 0
-1 2 233 0
-100 101 0
-100 102 0
-101 102 0
-102 -36 36 0
-103 -18 36 0
-103 -36 18 0
-104 -105 87 0
-104 105 106 0
-105 -11 18 0
-105 -18 11 0
-106 -107 109 0
-106 107 171 0
-107 108 0
-107 82 0
-108 -15 18 0
-108 -18 15 0
-109 -110 87 0
-109 110 133 0
-110 111 0
-110 131 0
-111 112 0
-111 129 0
-112 113 0
-112 127 0
-113 114 0
-113 125 0
-114 115 0
-114 123 0
-115 116 0
-115 121 0
-116 117 0
-116 119 0
-117 -118 36 0
-117 -36 118 0
-119 -120 36 0
-119 -36 120 0
-12 -13 0
-121 -122 36 0
-121 -36 122 0
-123 -124 36 0
-123 -36 124 0
-125 -126 36 0
-125 -36 126 0
-127 -128 36 0
-127 -36 128 0
-129 -130 36 0
-129 -36 130 0
-13 -14 15 0
-13 -15 14 0
-131 -132 18 0
-131 -18 132 0
-133 134 0
-133 167 0
-134 135 0
-134 163 0
-135 136 0
-135 159 0
-136 137 0
-136 155 0
-137 138 0
-137 151 0
-138 139 0
-138 147 0
-139 140 0
-139 143 0
-140 -141 36 0
-140 -36 141 0
-141 -142 -36 0
-141 142 36 0
-142 -118 -18 0
-142 118 18 0
-143 -144 36 0
-143 -36 144 0
-144 -145 -146 0
-144 145 146 0
-145 -120 -36 0
-145 120 36 0
-146 118 36 0
-147 -148 36 0
-147 -36 148 0
-148 -149 -150 0
-148 149 150 0
-149 -122 -36 0
-149 122 36 0
-150 120 0
-150 146 0
-151 -152 36 0
-151 -36 152 0
-152 -153 -154 0
-152 153 154 0
-153 -124 -36 0
-153 124 36 0
-154 122 0
-154 150 0
-155 -156 36 0
-155 -36 156 0
-156 -157 -158 0
-156 157 158 0
-157 -126 -36 0
-157 126 36 0
-158 124 0
-158 154 0
-159 -160 36 0
-159 -36 160 0
-16 -17 19 0
-16 17 67 0
-160 -161 -162 0
-160 161 162 0
-161 -128 -36 0
-161 128 36 0
-162 126 0
-162 158 0
-163 -164 36 0
-163 -36 164 0
-164 -165 -166 0
-164 165 166 0
-165 -130 -36 0
-165 130 36 0
-166 128 0
-166 162 0
-167 -168 18 0
-167 -18 168 0
-168 -169 -170 0
-168 169 170 0
-169 -132 -36 0
-169 132 36 0
-17 -18 6 0
-17 -6 18 0
-170 130 0
-170 166 0
-171 172 0
-171 185 0
-172 173 0
-172 184 0
-173 174 0
-173 183 0
-174 175 0
-174 182 0
-175 176 0
-175 181 0
-176 177 0
-176 180 0
-177 178 0
-177 179 0
-178 -118 36 0
-178 -36 118 0
-179 -120 36 0
-179 -36 120 0
-180 -122 36 0
-180 -36 122 0
-181 -124 36 0
-181 -36 124 0
-182 -126 36 0
-182 -36 126 0
-183 -128 36 0
-183 -36 128 0
-184 -130 36 0
-184 -36 130 0
-185 -132 18 0
-185 -18 132 0
-186 187 0
-186 231 0
-187 188 0
-187 229 0
-188 189 0
-188 227 0
-189 190 0
-189 225 0
-19 20 0
-19 65 0
-190 191 0
-190 223 0
-191 192 0
-191 221 0
-192 193 0
-192 219 0
-193 194 0
-193 217 0
-194 195 0
-194 215 0
-195 196 0
-195 213 0
-196 197 0
-196 211 0
-197 198 0
-197 209 0
-198 199 0
-198 207 0
-199 200 0
-199 205 0
-2 3 12 0
-20 21 0
-20 63 0
-200 201 0
-200 203 0
-201 -202 35 0
-201 -35 202 0
-203 -204 38 0
-203 -38 204 0
-205 -206 40 0
-205 -40 206 0
-207 -208 42 0
-207 -42 208 0
-209 -210 44 0
-209 -44 210 0
-21 22 0
-21 61 0
-211 -212 46 0
-211 -46 212 0
-213 -214 48 0
-213 -48 214 0
-215 -216 50 0
-215 -50 216 0
-217 -218 52 0
-217 -52 218 0
-219 -220 54 0
-219 -54 220 0
-22 23 0
-22 59 0
-221 -222 56 0
-221 -56 222 0
-223 -224 58 0
-223 -58 224 0
-225 -226 60 0
-225 -60 226 0
-227 -228 62 0
-227 -62 228 0
-229 -230 64 0
-229 -64 230 0
-23 24 0
-23 57 0
-231 -232 66 0
-231 -66 232 0
-233 234 0
-233 278 0
-234 235 0
-234 276 0
-235 236 0
-235 274 0
-236 237 0
-236 272 0
-237 238 0
-237 270 0
-238 239 0
-238 268 0
-239 240 0
-239 266 0
-24 25 0
-24 55 0
-240 241 0
-240 264 0
-241 242 0
-241 262 0
-242 243 0
-242 260 0
-243 244 0
-243 258 0
-244 245 0
-244 256 0
-245 246 0
-245 254 0
-246 247 0
-246 252 0
-247 248 0
-247 250 0
-248 -249 35 0
-248 -35 249 0
-25 26 0
-25 53 0
-250 -251 38 0
-250 -38 251 0
-252 -253 40 0
-252 -40 253 0
-254 -255 42 0
-254 -42 255 0
-256 -257 44 0
-256 -44 257 0
-258 -259 46 0
-258 -46 259 0
-26 27 0
-26 51 0
-260 -261 48 0
-260 -48 261 0
-262 -263 50 0
-262 -50 263 0
-264 -265 52 0
-264 -52 265 0
-266 -267 54 0
-266 -54 267 0
-268 -269 56 0
-268 -56 269 0
-27 28 0
-27 49 0
-270 -271 58 0
-270 -58 271 0
-272 -273 60 0
-272 -60 273 0
-274 -275 62 0
-274 -62 275 0
-276 -277 64 0
-276 -64 277 0
-278 -279 66 0
-278 -66 279 0
-28 29 0
-28 47 0
-29 30 0
-29 45 0
-3 4 8 0
-30 31 0
-30 43 0
-31 32 0
-31 41 0
-32 33 0
-32 39 0
-33 34 0
-33 37 0
-34 -35 36 0
-34 -36 35 0
-36 0
-37 -36 38 0
-37 -38 36 0
-39 -36 40 0
-39 -40 36 0
-4 -5 0
-41 -36 42 0
-41 -42 36 0
-43 -36 44 0
-43 -44 36 0
-45 -36 46 0
-45 -46 36 0
-47 -36 48 0
-47 -48 36 0
-49 -36 50 0
-49 -50 36 0
-5 -6 7 0
-5 -7 6 0
-51 -36 52 0
-51 -52 36 0
-53 -36 54 0
-53 -54 36 0
-55 -36 56 0
-55 -56 36 0
-57 -36 58 0
-57 -58 36 0
-59 -36 60 0
-59 -60 36 0
-61 -36 62 0
-61 -62 36 0
-63 -36 64 0
-63 -64 36 0
-65 -36 66 0
-65 -66 36 0
-67 -68 19 0
-67 68 69 0
-68 -10 18 0
-68 -18 10 0
-69 -70 72 0
-69 70 233 0
-70 12 0
-70 71 0
-71 -14 18 0
-71 -18 14 0
-72 -73 19 0
-72 73 186 0
-73 -74 85 0
-73 74 171 0
-74 75 82 0
-75 76 79 0
-76 -77 0
-77 -7 78 0
-77 -78 7 0
-79 -80 0
-8 -9 0
-80 -11 81 0
-80 -81 11 0
-82 -83 0
-83 -15 84 0
-83 -84 15 0
-85 -86 87 0
-85 86 104 0
-86 -18 7 0
-86 -7 18 0
-87 102 0
-87 88 0
-88 102 0
-88 89 0
-89 102 0
-89 90 0
-9 -10 11 0
-9 -11 10 0
-90 102 0
-90 91 0
-91 102 0
-91 92 0
-92 102 0
-92 93 0
-93 102 0
-93 94 0
-94 102 0
-94 95 0
-95 103 0
-95 96 0
-96 102 0
-96 97 0
-97 102 0
-97 98 0
-98 102 0
-98 99 0
-99 100 0
-99 102 0
1 -16 -233 0
1 -2 -16 0
1 0
1 2 -233 0
100 -101 -102 0
101 -102 -102 0
102 -36 -36 0
102 36 36 0
103 -18 -36 0
103 18 36 0
104 -105 -87 0
104 -87 -106 0
104 105 -106 0
105 -11 -18 0
105 11 18 0
106 -107 -109 0
106 -109 -171 0
106 107 -171 0
107 -82 -108 0
108 -15 -18 0
108 15 18 0
109 -110 -87 0
109 -87 -133 0
109 110 -133 0
110 -111 -131 0
111 -112 -129 0
112 -113 -127 0
113 -114 -125 0
114 -115 -123 0
115 -116 -121 0
116 -117 -119 0
117 -118 -36 0
117 118 36 0
119 -120 -36 0
119 120 36 0
12 13 0
121 -122 -36 0
121 122 36 0
123 -124 -36 0
123 124 36 0
125 -126 -36 0
125 126 36 0
127 -128 -36 0
127 128 36 0
129 -130 -36 0
129 130 36 0
13 -14 -15 0
13 14 15 0
131 -132 -18 0
131 132 18 0
133 -134 -167 0
134 -135 -163 0
135 -136 -159 0
136 -137 -155 0
137 -138 -151 0
138 -139 -147 0
139 -140 -143 0
140 -36 -141 0
140 36 141 0
141 -142 36 0
141 -36 142 0
142 -118 18 0
142 -18 118 0
143 -36 -144 0
143 36 144 0
144 -145 146 0
144 -146 145 0
145 -120 36 0
145 -36 120 0
146 -118 0
146 -36 0
147 -36 -148 0
147 36 148 0
148 -149 150 0
148 -150 149 0
149 -122 36 0
149 -36 122 0
150 -120 -146 0
151 -36 -152 0
151 36 152 0
152 -153 154 0
152 -154 153 0
153 -124 36 0
153 -36 124 0
154 -122 -150 0
155 -36 -156 0
155 36 156 0
156 -157 158 0
156 -158 157 0
157 -126 36 0
157 -36 126 0
158 -124 -154 0
159 -36 -160 0
159 36 160 0
16 -17 -19 0
16 -19 -67 0
16 17 -67 0
160 -161 162 0
160 -162 161 0
161 -128 36 0
161 -36 128 0
162 -126 -158 0
163 -36 -164 0
163 36 164 0
164 -165 166 0
164 -166 165 0
165 -130 36 0
165 -36 130 0
166 -128 -162 0
167 -18 -168 0
167 18 168 0
168 -169 170 0
168 -170 169 0
169 -132 36 0
169 -36 132 0
17 -6 -18 0
17 6 18 0
170 -130 -166 0
171 -172 -185 0
172 -173 -184 0
173 -174 -183 0
174 -175 -182 0
175 -176 -181 0
176 -177 -180 0
177 -178 -179 0
178 -36 -118 0
178 36 118 0
179 -36 -120 0
179 36 120 0
18 0
180 -36 -122 0
180 36 122 0
181 -36 -124 0
181 36 124 0
182 -36 -126 0
182 36 126 0
183 -36 -128 0
183 36 128 0
184 -36 -130 0
184 36 130 0
185 -18 -132 0
185 18 132 0
186 -187 -231 0
187 -188 -229 0
188 -189 -227 0
189 -190 -225 0
19 -20 -65 0
190 -191 -223 0
191 -192 -221 0
192 -193 -219 0
193 -194 -217 0
194 -195 -215 0
195 -196 -213 0
196 -197 -211 0
197 -198 -209 0
198 -199 -207 0
199 -200 -205 0
2 -12 0
2 -3 0
20 -21 -63 0
200 -201 -203 0
201 -35 -202 0
201 35 202 0
203 -38 -204 0
203 38 204 0
205 -40 -206 0
205 40 206 0
207 -42 -208 0
207 42 208 0
209 -44 -210 0
209 44 210 0
21 -22 -61 0
211 -46 -212 0
211 46 212 0
213 -48 -214 0
213 48 214 0
215 -50 -216 0
215 50 216 0
217 -52 -218 0
217 52 218 0
219 -54 -220 0
219 54 220 0
22 -23 -59 0
221 -56 -222 0
221 56 222 0
223 -58 -224 0
223 58 224 0
225 -60 -226 0
225 60 226 0
227 -62 -228 0
227 62 228 0
229 -64 -230 0
229 64 230 0
23 -24 -57 0
231 -66 -232 0
231 66 232 0
233 -234 -278 0
234 -235 -276 0
235 -236 -274 0
236 -237 -272 0
237 -238 -270 0
238 -239 -268 0
239 -240 -266 0
24 -25 -55 0
240 -241 -264 0
241 -242 -262 0
242 -243 -260 0
243 -244 -258 0
244 -245 -256 0
245 -246 -254 0
246 -247 -252 0
247 -248 -250 0
248 -35 -249 0
248 35 249 0
25 -26 -53 0
250 -38 -251 0
250 38 251 0
252 -40 -253 0
252 40 253 0
254 -42 -255 0
254 42 255 0
256 -44 -257 0
256 44 257 0
258 -46 -259 0
258 46 259 0
26 -27 -51 0
260 -48 -261 0
260 48 261 0
262 -50 -263 0
262 50 263 0
264 -52 -265 0
264 52 265 0
266 -54 -267 0
266 54 267 0
268 -56 -269 0
268 56 269 0
27 -28 -49 0
270 -58 -271 0
270 58 271 0
272 -60 -273 0
272 60 273 0
274 -62 -275 0
274 62 275 0
276 -64 -277 0
276 64 277 0
278 -66 -279 0
278 66 279 0
28 -29 -47 0
29 -30 -45 0
3 -4 0
3 -8 0
30 -31 -43 0
31 -32 -41 0
32 -33 -39 0
33 -34 -37 0
34 -35 -36 0
34 35 36 0
37 -38 -36 0
37 38 36 0
39 -40 -36 0
39 40 36 0
4 5 0
41 -42 -36 0
41 42 36 0
43 -44 -36 0
43 44 36 0
45 -46 -36 0
45 46 36 0
47 -48 -36 0
47 48 36 0
49 -50 -36 0
49 50 36 0
5 -6 -7 0
5 6 7 0
51 -52 -36 0
51 52 36 0
53 -54 -36 0
53 54 36 0
55 -56 -36 0
55 56 36 0
57 -58 -36 0
57 58 36 0
59 -60 -36 0
59 60 36 0
61 -62 -36 0
61 62 36 0
63 -64 -36 0
63 64 36 0
65 -66 -36 0
65 66 36 0
67 -19 -69 0
67 -68 -19 0
67 68 -69 0
68 -10 -18 0
68 10 18 0
69 -70 -72 0
69 -72 -233 0
69 70 -233 0
70 -12 -71 0
71 -14 -18 0
71 14 18 0
72 -19 -186 0
72 -73 -19 0
72 73 -186 0
73 -74 -85 0
73 -85 -171 0
73 74 -171 0
74 -75 0
74 -82 0
75 -76 0
75 -79 0
76 77 0
77 -7 -78 0
77 7 78 0
79 80 0
8 9 0
80 -11 -81 0
80 11 81 0
82 83 0
83 -15 -84 0
83 15 84 0
85 -86 -87 0
85 -87 -104 0
85 86 -104 0
86 -7 -18 0
86 7 18 0
87 -88 -102 0
88 -89 -102 0
89 -90 -102 0
9 -10 -11 0
9 10 11 0
90 -91 -102 0
91 -92 -102 0
92 -93 -102 0
93 -94 -102 0
94 -95 -102 0
95 -96 -103 0
96 -97 -102 0
97 -98 -102 0
98 -99 -102 0
99 -100 -102 0
